(set-logic NRA)
(assert (exists ((y Real)) (exists ((x Real)) (exists ((t Real)) (and (>=  (+ (- 96) (* t 17)) 0) (<=  (+ (- 160) (* t 17)) 0) (>=  (+ (+ 16 (* t (- 17))) (* x 16)) 0) (<=  (+ (+ (- 16) (* t (- 17))) (* x 16)) 0) (>=  (+ (+ 144 (* t (- 17))) (* y 16)) 0) (<=  (+ (+ 112 (* t (- 17))) (* y 16)) 0) (<=  (+ (+ (+ (- 1) (* t t)) (* x (+ (* t (- 2)) x))) (* y y)) 0))))))
(apply qe)
